# Solution for model obj
# Objective value = 13
x#1 0
x#2 0
x#3 0
x#4 1
x#5 0
x#6 1
x#7 0
x#8 1
x#9 0
x#10 0
x#11 0
x#12 0
x#13 1
x#14 1
x#15 1
x#16 0
x#17 0
x#18 0
x#19 1
x#20 0
x#21 1
x#22 1
x#23 0
x#24 1
x#25 0
x#26 0
x#27 0
x#28 1
x#29 1
x#30 1
x#31 0
x#32 0
